p cnf 150 756
1 -76 -58 0
-1 76 -58 0
1 76 -59 0
-1 -76 -59 0
20 -76 -64 0
-20 76 -64 0
20 76 -65 0
-20 -76 -65 0
39 -76 -70 0
-39 76 -70 0
39 76 -71 0
-39 -76 -71 0
2 -58 0
2 -59 0
58 -58 0
59 -59 0
21 -64 0
21 -65 0
64 -64 0
65 -65 0
40 -70 0
40 -71 0
70 -70 0
71 -71 0
3 -77 -58 0
-3 77 -58 0
3 77 -59 0
-3 -77 -59 0
22 -77 -64 0
-22 77 -64 0
22 77 -65 0
-22 -77 -65 0
41 -77 -70 0
-41 77 -70 0
41 77 -71 0
-41 -77 -71 0
4 -78 -58 0
-4 78 -58 0
4 78 -59 0
-4 -78 -59 0
23 -78 -64 0
-23 78 -64 0
23 78 -65 0
-23 -78 -65 0
42 -78 -70 0
-42 78 -70 0
42 78 -71 0
-42 -78 -71 0
5 -58 0
5 -59 0
58 -58 0
59 -59 0
24 -64 0
24 -65 0
64 -64 0
65 -65 0
43 -70 0
43 -71 0
70 -70 0
71 -71 0
6 -58 0
6 -59 0
58 -58 0
59 -59 0
25 -64 0
25 -65 0
64 -64 0
65 -65 0
44 -70 0
44 -71 0
70 -70 0
71 -71 0
7 -79 -58 0
-7 79 -58 0
7 79 -59 0
-7 -79 -59 0
26 -79 -64 0
-26 79 -64 0
26 79 -65 0
-26 -79 -65 0
45 -79 -70 0
-45 79 -70 0
45 79 -71 0
-45 -79 -71 0
8 -58 0
8 -59 0
58 -58 0
59 -59 0
27 -64 0
27 -65 0
64 -64 0
65 -65 0
46 -70 0
46 -71 0
70 -70 0
71 -71 0
9 -58 0
9 -59 0
58 -58 0
59 -59 0
28 -64 0
28 -65 0
64 -64 0
65 -65 0
47 -70 0
47 -71 0
70 -70 0
71 -71 0
10 -58 0
10 -59 0
58 -58 0
59 -59 0
29 -64 0
29 -65 0
64 -64 0
65 -65 0
48 -70 0
48 -71 0
70 -70 0
71 -71 0
11 -58 0
11 -59 0
58 -58 0
59 -59 0
30 -64 0
30 -65 0
64 -64 0
65 -65 0
49 -70 0
49 -71 0
70 -70 0
71 -71 0
-12 -58 0
-12 -59 0
58 -58 0
59 -59 0
-31 -64 0
-31 -65 0
64 -64 0
65 -65 0
-50 -70 0
-50 -71 0
70 -70 0
71 -71 0
13 -80 -58 0
-13 80 -58 0
13 80 -59 0
-13 -80 -59 0
32 -80 -64 0
-32 80 -64 0
32 80 -65 0
-32 -80 -65 0
51 -80 -70 0
-51 80 -70 0
51 80 -71 0
-51 -80 -71 0
14 -81 -58 0
-14 81 -58 0
14 81 -59 0
-14 -81 -59 0
33 -81 -64 0
-33 81 -64 0
33 81 -65 0
-33 -81 -65 0
52 -81 -70 0
-52 81 -70 0
52 81 -71 0
-52 -81 -71 0
15 -82 -58 0
-15 82 -58 0
15 82 -59 0
-15 -82 -59 0
34 -82 -64 0
-34 82 -64 0
34 82 -65 0
-34 -82 -65 0
53 -82 -70 0
-53 82 -70 0
53 82 -71 0
-53 -82 -71 0
16 -58 0
16 -59 0
58 -58 0
59 -59 0
35 -64 0
35 -65 0
64 -64 0
65 -65 0
54 -70 0
54 -71 0
70 -70 0
71 -71 0
17 -58 0
17 -59 0
58 -58 0
59 -59 0
36 -64 0
36 -65 0
64 -64 0
65 -65 0
55 -70 0
55 -71 0
70 -70 0
71 -71 0
18 -58 0
18 -59 0
58 -58 0
59 -59 0
37 -64 0
37 -65 0
64 -64 0
65 -65 0
56 -70 0
56 -71 0
70 -70 0
71 -71 0
19 -83 -58 0
-19 83 -58 0
19 83 -59 0
-19 -83 -59 0
38 -83 -64 0
-38 83 -64 0
38 83 -65 0
-38 -83 -65 0
57 -83 -70 0
-57 83 -70 0
57 83 -71 0
-57 -83 -71 0
-133 58 0
133 -58 0
-134 59 0
133 -59 0
-133 -58 0
-134 -59 0
-139 58 133 0
139 -58 0
139 -133 0
-140 59 134 0
140 -59 0
140 -134 0
-139 -64 0
-140 -65 0
-145 64 139 0
145 -64 0
145 -139 0
-146 65 140 0
146 -65 0
146 -140 0
-145 -70 0
-146 -71 0
145 0
146 0
1 -60 0
1 -61 0
60 -60 0
61 -61 0
20 -66 0
20 -67 0
66 -66 0
67 -67 0
39 -72 0
39 -73 0
72 -72 0
73 -73 0
2 -84 -60 0
-2 84 -60 0
2 84 -61 0
-2 -84 -61 0
21 -84 -66 0
-21 84 -66 0
21 84 -67 0
-21 -84 -67 0
40 -84 -72 0
-40 84 -72 0
40 84 -73 0
-40 -84 -73 0
3 -60 0
3 -61 0
60 -60 0
61 -61 0
22 -66 0
22 -67 0
66 -66 0
67 -67 0
41 -72 0
41 -73 0
72 -72 0
73 -73 0
4 -60 0
4 -61 0
60 -60 0
61 -61 0
23 -66 0
23 -67 0
66 -66 0
67 -67 0
42 -72 0
42 -73 0
72 -72 0
73 -73 0
5 -85 -60 0
-5 85 -60 0
5 85 -61 0
-5 -85 -61 0
24 -85 -66 0
-24 85 -66 0
24 85 -67 0
-24 -85 -67 0
43 -85 -72 0
-43 85 -72 0
43 85 -73 0
-43 -85 -73 0
6 -86 -60 0
-6 86 -60 0
6 86 -61 0
-6 -86 -61 0
25 -86 -66 0
-25 86 -66 0
25 86 -67 0
-25 -86 -67 0
44 -86 -72 0
-44 86 -72 0
44 86 -73 0
-44 -86 -73 0
7 -87 -60 0
-7 87 -60 0
7 87 -61 0
-7 -87 -61 0
26 -87 -66 0
-26 87 -66 0
26 87 -67 0
-26 -87 -67 0
45 -87 -72 0
-45 87 -72 0
45 87 -73 0
-45 -87 -73 0
8 -60 0
8 -61 0
60 -60 0
61 -61 0
27 -66 0
27 -67 0
66 -66 0
67 -67 0
46 -72 0
46 -73 0
72 -72 0
73 -73 0
9 -88 -60 0
-9 88 -60 0
9 88 -61 0
-9 -88 -61 0
28 -88 -66 0
-28 88 -66 0
28 88 -67 0
-28 -88 -67 0
47 -88 -72 0
-47 88 -72 0
47 88 -73 0
-47 -88 -73 0
10 -89 -60 0
-10 89 -60 0
10 89 -61 0
-10 -89 -61 0
29 -89 -66 0
-29 89 -66 0
29 89 -67 0
-29 -89 -67 0
48 -89 -72 0
-48 89 -72 0
48 89 -73 0
-48 -89 -73 0
11 -90 -60 0
-11 90 -60 0
11 90 -61 0
-11 -90 -61 0
30 -90 -66 0
-30 90 -66 0
30 90 -67 0
-30 -90 -67 0
49 -90 -72 0
-49 90 -72 0
49 90 -73 0
-49 -90 -73 0
12 -91 -60 0
-12 91 -60 0
12 91 -61 0
-12 -91 -61 0
31 -91 -66 0
-31 91 -66 0
31 91 -67 0
-31 -91 -67 0
50 -91 -72 0
-50 91 -72 0
50 91 -73 0
-50 -91 -73 0
13 -92 -60 0
-13 92 -60 0
13 92 -61 0
-13 -92 -61 0
32 -92 -66 0
-32 92 -66 0
32 92 -67 0
-32 -92 -67 0
51 -92 -72 0
-51 92 -72 0
51 92 -73 0
-51 -92 -73 0
14 -60 0
14 -61 0
60 -60 0
61 -61 0
33 -66 0
33 -67 0
66 -66 0
67 -67 0
52 -72 0
52 -73 0
72 -72 0
73 -73 0
15 -93 -60 0
-15 93 -60 0
15 93 -61 0
-15 -93 -61 0
34 -93 -66 0
-34 93 -66 0
34 93 -67 0
-34 -93 -67 0
53 -93 -72 0
-53 93 -72 0
53 93 -73 0
-53 -93 -73 0
16 -60 0
16 -61 0
60 -60 0
61 -61 0
35 -66 0
35 -67 0
66 -66 0
67 -67 0
54 -72 0
54 -73 0
72 -72 0
73 -73 0
17 -94 -60 0
-17 94 -60 0
17 94 -61 0
-17 -94 -61 0
36 -94 -66 0
-36 94 -66 0
36 94 -67 0
-36 -94 -67 0
55 -94 -72 0
-55 94 -72 0
55 94 -73 0
-55 -94 -73 0
18 -60 0
18 -61 0
60 -60 0
61 -61 0
37 -66 0
37 -67 0
66 -66 0
67 -67 0
56 -72 0
56 -73 0
72 -72 0
73 -73 0
19 -60 0
19 -61 0
60 -60 0
61 -61 0
38 -66 0
38 -67 0
66 -66 0
67 -67 0
57 -72 0
57 -73 0
72 -72 0
73 -73 0
-135 60 0
135 -60 0
-136 61 0
135 -61 0
-135 -60 0
-136 -61 0
-141 60 135 0
141 -60 0
141 -135 0
-142 61 136 0
142 -61 0
142 -136 0
-141 -66 0
-142 -67 0
-147 66 141 0
147 -66 0
147 -141 0
-148 67 142 0
148 -67 0
148 -142 0
-147 -72 0
-148 -73 0
147 0
148 0
1 -62 0
1 -63 0
62 -62 0
63 -63 0
20 -68 0
20 -69 0
68 -68 0
69 -69 0
39 -74 0
39 -75 0
74 -74 0
75 -75 0
2 -95 -62 0
-2 95 -62 0
2 95 -63 0
-2 -95 -63 0
21 -95 -68 0
-21 95 -68 0
21 95 -69 0
-21 -95 -69 0
40 -95 -74 0
-40 95 -74 0
40 95 -75 0
-40 -95 -75 0
3 -62 0
3 -63 0
62 -62 0
63 -63 0
22 -68 0
22 -69 0
68 -68 0
69 -69 0
41 -74 0
41 -75 0
74 -74 0
75 -75 0
4 -62 0
4 -63 0
62 -62 0
63 -63 0
23 -68 0
23 -69 0
68 -68 0
69 -69 0
42 -74 0
42 -75 0
74 -74 0
75 -75 0
5 -96 -62 0
-5 96 -62 0
5 96 -63 0
-5 -96 -63 0
24 -96 -68 0
-24 96 -68 0
24 96 -69 0
-24 -96 -69 0
43 -96 -74 0
-43 96 -74 0
43 96 -75 0
-43 -96 -75 0
6 -97 -62 0
-6 97 -62 0
6 97 -63 0
-6 -97 -63 0
25 -97 -68 0
-25 97 -68 0
25 97 -69 0
-25 -97 -69 0
44 -97 -74 0
-44 97 -74 0
44 97 -75 0
-44 -97 -75 0
7 -62 0
7 -63 0
62 -62 0
63 -63 0
26 -68 0
26 -69 0
68 -68 0
69 -69 0
45 -74 0
45 -75 0
74 -74 0
75 -75 0
8 -62 0
8 -63 0
62 -62 0
63 -63 0
27 -68 0
27 -69 0
68 -68 0
69 -69 0
46 -74 0
46 -75 0
74 -74 0
75 -75 0
9 -62 0
9 -63 0
62 -62 0
63 -63 0
28 -68 0
28 -69 0
68 -68 0
69 -69 0
47 -74 0
47 -75 0
74 -74 0
75 -75 0
10 -62 0
10 -63 0
62 -62 0
63 -63 0
29 -68 0
29 -69 0
68 -68 0
69 -69 0
48 -74 0
48 -75 0
74 -74 0
75 -75 0
11 -62 0
11 -63 0
62 -62 0
63 -63 0
30 -68 0
30 -69 0
68 -68 0
69 -69 0
49 -74 0
49 -75 0
74 -74 0
75 -75 0
12 -98 -62 0
-12 98 -62 0
12 98 -63 0
-12 -98 -63 0
31 -98 -68 0
-31 98 -68 0
31 98 -69 0
-31 -98 -69 0
50 -98 -74 0
-50 98 -74 0
50 98 -75 0
-50 -98 -75 0
-13 -62 0
-13 -63 0
62 -62 0
63 -63 0
-32 -68 0
-32 -69 0
68 -68 0
69 -69 0
-51 -74 0
-51 -75 0
74 -74 0
75 -75 0
14 -62 0
14 -63 0
62 -62 0
63 -63 0
33 -68 0
33 -69 0
68 -68 0
69 -69 0
52 -74 0
52 -75 0
74 -74 0
75 -75 0
-15 -62 0
-15 -63 0
62 -62 0
63 -63 0
-34 -68 0
-34 -69 0
68 -68 0
69 -69 0
-53 -74 0
-53 -75 0
74 -74 0
75 -75 0
16 -62 0
16 -63 0
62 -62 0
63 -63 0
35 -68 0
35 -69 0
68 -68 0
69 -69 0
54 -74 0
54 -75 0
74 -74 0
75 -75 0
17 -62 0
17 -63 0
62 -62 0
63 -63 0
36 -68 0
36 -69 0
68 -68 0
69 -69 0
55 -74 0
55 -75 0
74 -74 0
75 -75 0
18 -62 0
18 -63 0
62 -62 0
63 -63 0
37 -68 0
37 -69 0
68 -68 0
69 -69 0
56 -74 0
56 -75 0
74 -74 0
75 -75 0
19 -62 0
19 -63 0
62 -62 0
63 -63 0
38 -68 0
38 -69 0
68 -68 0
69 -69 0
57 -74 0
57 -75 0
74 -74 0
75 -75 0
-137 62 0
137 -62 0
-138 63 0
137 -63 0
-137 -62 0
-138 -63 0
-143 62 137 0
143 -62 0
143 -137 0
-144 63 138 0
144 -63 0
144 -138 0
-143 -68 0
-144 -69 0
-149 68 143 0
149 -68 0
149 -143 0
-150 69 144 0
150 -69 0
150 -144 0
-149 -74 0
-150 -75 0
149 0
150 0
